
Gurobi 8.1.0 (win64, Python) logging started 12/27/18 19:39:11


Gurobi 8.1.0 (win64, Python) logging started 12/28/18 17:44:17

Optimize a model with 28 rows, 12 columns and 116 nonzeros
Variable types: 8 continuous, 4 integer (4 binary)
Coefficient statistics:
  Matrix range     [1e+00, 1e+04]
  Objective range  [2e+01, 5e+01]
  Bounds range     [1e+00, 1e+00]
  RHS range        [2e+01, 1e+04]
Found heuristic solution: objective -0.0000000
Presolve removed 28 rows and 12 columns
Presolve time: 0.09s
Presolve: All rows and columns removed

Explored 0 nodes (0 simplex iterations) in 0.15 seconds
Thread count was 1 (of 4 available processors)

Solution count 2: 3787.5 -0 

Optimal solution found (tolerance 1.00e-04)
Best objective 3.787500000000e+03, best bound 3.787500000000e+03, gap 0.0000%
Optimize a model with 28 rows, 12 columns and 116 nonzeros
Variable types: 8 continuous, 4 integer (4 binary)
Coefficient statistics:
  Matrix range     [1e+00, 1e+04]
  Objective range  [2e+01, 5e+01]
  Bounds range     [1e+00, 1e+00]
  RHS range        [2e+01, 1e+04]
Found heuristic solution: objective -0.0000000
Presolve removed 28 rows and 12 columns
Presolve time: 0.00s
Presolve: All rows and columns removed

Explored 0 nodes (0 simplex iterations) in 0.01 seconds
Thread count was 1 (of 4 available processors)

Solution count 2: 3787.5 -0 

Optimal solution found (tolerance 1.00e-04)
Best objective 3.787500000000e+03, best bound 3.787500000000e+03, gap 0.0000%
Optimize a model with 28 rows, 12 columns and 116 nonzeros
Variable types: 8 continuous, 4 integer (4 binary)
Coefficient statistics:
  Matrix range     [1e+00, 1e+04]
  Objective range  [2e+01, 5e+01]
  Bounds range     [1e+00, 1e+00]
  RHS range        [2e+01, 1e+04]
Found heuristic solution: objective -0.0000000
Presolve removed 28 rows and 12 columns
Presolve time: 0.00s
Presolve: All rows and columns removed

Explored 0 nodes (0 simplex iterations) in 0.02 seconds
Thread count was 1 (of 4 available processors)

Solution count 2: 3787.5 -0 

Optimal solution found (tolerance 1.00e-04)
Best objective 3.787500000000e+03, best bound 3.787500000000e+03, gap 0.0000%
Optimize a model with 28 rows, 12 columns and 116 nonzeros
Variable types: 8 continuous, 4 integer (4 binary)
Coefficient statistics:
  Matrix range     [1e+00, 1e+04]
  Objective range  [2e+01, 5e+01]
  Bounds range     [1e+00, 1e+00]
  RHS range        [2e+01, 1e+04]
Found heuristic solution: objective -0.0000000
Presolve removed 28 rows and 12 columns
Presolve time: 0.00s
Presolve: All rows and columns removed

Explored 0 nodes (0 simplex iterations) in 0.03 seconds
Thread count was 1 (of 4 available processors)

Solution count 2: 3787.5 -0 

Optimal solution found (tolerance 1.00e-04)
Best objective 3.787500000000e+03, best bound 3.787500000000e+03, gap 0.0000%
Optimize a model with 28 rows, 12 columns and 116 nonzeros
Variable types: 8 continuous, 4 integer (4 binary)
Coefficient statistics:
  Matrix range     [1e+00, 1e+04]
  Objective range  [2e+01, 5e+01]
  Bounds range     [1e+00, 1e+00]
  RHS range        [2e+01, 1e+04]
Found heuristic solution: objective -0.0000000
Presolve removed 28 rows and 12 columns
Presolve time: 0.00s
Presolve: All rows and columns removed

Explored 0 nodes (0 simplex iterations) in 0.04 seconds
Thread count was 1 (of 4 available processors)

Solution count 2: 3787.5 -0 

Optimal solution found (tolerance 1.00e-04)
Best objective 3.787500000000e+03, best bound 3.787500000000e+03, gap 0.0000%
Optimize a model with 28 rows, 12 columns and 116 nonzeros
Variable types: 8 continuous, 4 integer (4 binary)
Coefficient statistics:
  Matrix range     [1e+00, 1e+04]
  Objective range  [2e+01, 5e+01]
  Bounds range     [1e+00, 1e+00]
  RHS range        [2e+01, 1e+04]
Found heuristic solution: objective -0.0000000
Presolve removed 28 rows and 12 columns
Presolve time: 0.00s
Presolve: All rows and columns removed

Explored 0 nodes (0 simplex iterations) in 0.02 seconds
Thread count was 1 (of 4 available processors)

Solution count 2: 3787.5 -0 

Optimal solution found (tolerance 1.00e-04)
Best objective 3.787500000000e+03, best bound 3.787500000000e+03, gap 0.0000%
Optimize a model with 28 rows, 12 columns and 116 nonzeros
Variable types: 8 continuous, 4 integer (4 binary)
Coefficient statistics:
  Matrix range     [1e+00, 1e+04]
  Objective range  [2e+01, 5e+01]
  Bounds range     [1e+00, 1e+00]
  RHS range        [2e+01, 1e+04]
Found heuristic solution: objective -0.0000000
Presolve removed 28 rows and 12 columns
Presolve time: 0.00s
Presolve: All rows and columns removed

Explored 0 nodes (0 simplex iterations) in 0.03 seconds
Thread count was 1 (of 4 available processors)

Solution count 2: 3787.5 -0 

Optimal solution found (tolerance 1.00e-04)
Best objective 3.787500000000e+03, best bound 3.787500000000e+03, gap 0.0000%
Optimize a model with 28 rows, 12 columns and 116 nonzeros
Variable types: 8 continuous, 4 integer (4 binary)
Coefficient statistics:
  Matrix range     [1e+00, 1e+04]
  Objective range  [2e+01, 5e+01]
  Bounds range     [1e+00, 1e+00]
  RHS range        [2e+01, 1e+04]
Found heuristic solution: objective -0.0000000
Presolve removed 28 rows and 12 columns
Presolve time: 0.00s
Presolve: All rows and columns removed

Explored 0 nodes (0 simplex iterations) in 0.06 seconds
Thread count was 1 (of 4 available processors)

Solution count 2: 3787.5 -0 

Optimal solution found (tolerance 1.00e-04)
Best objective 3.787500000000e+03, best bound 3.787500000000e+03, gap 0.0000%
Optimize a model with 28 rows, 12 columns and 116 nonzeros
Variable types: 8 continuous, 4 integer (4 binary)
Coefficient statistics:
  Matrix range     [1e+00, 1e+04]
  Objective range  [2e+01, 5e+01]
  Bounds range     [1e+00, 1e+00]
  RHS range        [2e+01, 1e+04]
Found heuristic solution: objective -0.0000000
Presolve removed 28 rows and 12 columns
Presolve time: 0.00s
Presolve: All rows and columns removed

Explored 0 nodes (0 simplex iterations) in 0.05 seconds
Thread count was 1 (of 4 available processors)

Solution count 2: 3787.5 -0 

Optimal solution found (tolerance 1.00e-04)
Best objective 3.787500000000e+03, best bound 3.787500000000e+03, gap 0.0000%
Optimize a model with 28 rows, 12 columns and 116 nonzeros
Variable types: 8 continuous, 4 integer (4 binary)
Coefficient statistics:
  Matrix range     [1e+00, 1e+04]
  Objective range  [2e+01, 5e+01]
  Bounds range     [1e+00, 1e+00]
  RHS range        [2e+01, 1e+04]
Found heuristic solution: objective -0.0000000
Presolve removed 28 rows and 12 columns
Presolve time: 0.00s
Presolve: All rows and columns removed

Explored 0 nodes (0 simplex iterations) in 0.01 seconds
Thread count was 1 (of 4 available processors)

Solution count 2: 3787.5 -0 

Optimal solution found (tolerance 1.00e-04)
Best objective 3.787500000000e+03, best bound 3.787500000000e+03, gap 0.0000%
Optimize a model with 28 rows, 12 columns and 116 nonzeros
Variable types: 8 continuous, 4 integer (4 binary)
Coefficient statistics:
  Matrix range     [1e+00, 1e+04]
  Objective range  [2e+01, 5e+01]
  Bounds range     [1e+00, 1e+00]
  RHS range        [2e+01, 1e+04]
Presolve removed 8 rows and 1 columns
Presolve time: 0.00s

Explored 0 nodes (0 simplex iterations) in 0.02 seconds
Thread count was 1 (of 4 available processors)

Solution count 0

Model is infeasible or unbounded
Best objective -, best bound -, gap -
Optimize a model with 28 rows, 12 columns and 116 nonzeros
Variable types: 8 continuous, 4 integer (4 binary)
Coefficient statistics:
  Matrix range     [1e+00, 1e+04]
  Objective range  [2e+01, 5e+01]
  Bounds range     [1e+00, 1e+00]
  RHS range        [2e+01, 1e+04]
Presolve removed 28 rows and 12 columns
Presolve time: 0.00s
Presolve: All rows and columns removed

Explored 0 nodes (0 simplex iterations) in 0.01 seconds
Thread count was 1 (of 4 available processors)

Solution count 1: 3250 

Optimal solution found (tolerance 1.00e-04)
Best objective 3.250000000000e+03, best bound 3.250000000000e+03, gap 0.0000%
Optimize a model with 14 rows, 6 columns and 38 nonzeros
Variable types: 4 continuous, 2 integer (2 binary)
Coefficient statistics:
  Matrix range     [1e+00, 1e+04]
  Objective range  [2e+01, 5e+01]
  Bounds range     [1e+00, 1e+00]
  RHS range        [2e+01, 1e+04]
Found heuristic solution: objective -0.0000000
Presolve removed 14 rows and 6 columns
Presolve time: 0.00s
Presolve: All rows and columns removed

Explored 0 nodes (0 simplex iterations) in 0.01 seconds
Thread count was 1 (of 4 available processors)

Solution count 2: 900 -0 

Optimal solution found (tolerance 1.00e-04)
Best objective 9.000000000000e+02, best bound 9.000000000000e+02, gap 0.0000%

Gurobi 8.1.0 (win64, Python) logging started 12/28/18 20:38:38

Optimize a model with 14 rows, 6 columns and 38 nonzeros
Variable types: 4 continuous, 2 integer (2 binary)
Coefficient statistics:
  Matrix range     [1e+00, 1e+04]
  Objective range  [2e+01, 5e+01]
  Bounds range     [1e+00, 1e+00]
  RHS range        [2e+01, 1e+04]
Found heuristic solution: objective -0.0000000
Presolve removed 14 rows and 6 columns
Presolve time: 0.00s
Presolve: All rows and columns removed

Explored 0 nodes (0 simplex iterations) in 0.02 seconds
Thread count was 1 (of 4 available processors)

Solution count 2: 900 -0 

Optimal solution found (tolerance 1.00e-04)
Best objective 9.000000000000e+02, best bound 9.000000000000e+02, gap 0.0000%
